0 5002 0 0
1 5002 94 0
2 5002 600 0
3 5002 1016 0
4 5002 2008 0
5 5002 2657 0
6 5002 2894 0
7 5002 3351 1
8 5002 4166 2
9 5002 4612 4
10 5002 5034 8
11 5002 5825 17
12 5002 5947 35
13 5002 6614 83
14 5002 7118 146
15 5002 7118 272
16 5002 7453 559
17 5002 7637 1375
18 5002 7957 3113
19 5002 8711 5223
20 5002 8966 9563
21 5002 9377 19217
22 5002 9377 38585
23 5002 9377 75246
24 5002 10077 151230
25 5002 10077 310269
26 5002 10564 605946
27 5002 10778 1206548
28 5002 10905 2520530
29 5002 10905 5073678
30 5002 10905 9771179
